# Random Circle Problem
param d := 0.05; 
param n := 10; 
param radius := 2.00; 
param v0 := 
1 5.06
2 5.92
3 5.42
4 5.16
5 5.21
6 5.40
7 5.58
8 5.30
9 4.95
10 5.43
;
param cap := 
1 3.10622
2 3.70346
3 4.82686
4 5.07045
5 5.96602
6 0.18665
7 1.14121
8 1.37314
9 1.63589
10 2.51042
;
param x0 := 
1 2.00
2 1.62
3 0.62
4 -0.62
5 -1.62
6 -2.00
7 -1.62
8 -0.62
9 0.62
10 1.62
;
param y0 := 
1 -0.00
2 1.18
3 1.90
4 1.90
5 1.18
6 0.00
7 -1.18
8 -1.90
9 -1.90
10 -1.18
;
